Maximize
F - f1 - f2

Subject to
F - 10.0y225 - 5.0y85 - 5.0y190 - 20.0y284 - 15.0y256 - 10.0y110 - 15.0y220 - 10.0y80 - 5.0y39 - 10.0y141 - 15.0y106 - 20.0y300 - 15.0y20 - 15.0y248 - 5.0y193 - 10.0y166 - 5.0y187 - 15.0y103 - 10.0y96 - 20.0y224 - 5.0y84 - 10.0y81 - 5.0y301 = 0
f1 - 0.005239s225 - 0.005239s85 - 0.005239s190 - 0.005239s284 - 0.005239s256 - 0.005239s110 - 0.005239s220 - 0.005239s80 - 0.005239s39 - 0.005239s141 - 0.005239s106 - 0.005239s300 - 0.005239s20 - 0.005239s248 - 0.005239s193 - 0.005239s166 - 0.005239s187 - 0.005239s103 - 0.005239s96 - 0.005239s224 - 0.005239s84 - 0.005239s81 - 0.005239s301  = 0
f2 - 0.17y225 - 0.24y85 - 0.11y190 - 0.03y284 - 2.79y256 - 2.30y110 - 0.24y220 - 0.33y80 - 0.13y39 - 0.11y141 - 0.23y106 - 0.04y300 - 0.22y20 - 0.24y248 - 0.30y193 - 0.13y166 - 0.70y187 - 0.37y103 - 0.62y96 - 0.09y224 - 0.10y84 - 0.88y81 - 0.07y301 = 0

x65x85x1 + x65x190x1 + x65x110x1 + x65x80x1 + x65x39x1 + x65x141x1 + x65x300x1 + x65x193x1 + x65x166x1 + x65x187x1 + x65x96x1 + x65x224x1 
<= 2
x194x193x1 + x194x166x1 + x194x224x1 
<= 2
x285x85x1 + x285x190x1 + x285x110x1 + x285x80x1 + x285x39x1 + x285x141x1 + x285x300x1 + x285x193x1 + x285x166x1 + x285x187x1 + x285x96x1 + x285x224x1 
<= 1
x111x224x1 
<= 2
x113x225x2 + x113x190x2 + x113x284x2 + x113x256x2 + x113x39x2 + x113x106x2 + x113x300x2 + x113x20x2 + x113x248x2 + x113x103x2 + x113x224x2 + x113x84x2 + x113x301x2 
<= 1
x99x225x2 + x99x190x2 + x99x284x2 + x99x256x2 + x99x220x2 + x99x39x2 + x99x106x2 + x99x300x2 + x99x20x2 + x99x248x2 + x99x103x2 + x99x224x2 + x99x84x2 + x99x301x2 
<= 1
x285x225x2 + x285x190x2 + x285x284x2 + x285x256x2 + x285x220x2 + x285x39x2 + x285x106x2 + x285x300x2 + x285x20x2 + x285x248x2 + x285x103x2 + x285x224x2 + x285x84x2 + x285x301x2 
<= 1
x142x106x2 + x142x20x2 + x142x224x2 + x142x84x2 + x142x301x2 
<= 1
x167x106x2 + x167x20x2 + x167x224x2 + x167x84x2 + x167x301x2 
<= 1
x115x106x2 + x115x20x2 + x115x224x2 + x115x84x2 + x115x301x2 
<= 2
x113x284x3 + x113x141x3 + x113x248x3 + x113x84x3 + x113x81x3 + x113x301x3 
<= 1
x142x84x3 + x142x301x3 
<= 1
x72x84x3 + x72x301x3 
<= 2
x167x84x3 + x167x301x3 
<= 1
x125x84x3 + x125x301x3 
<= 2


x113x225x2 + x99x225x2 + x285x225x2 
- x225x0x2
- x225x190x2 - x225x284x2 - x225x39x2 - x225x106x2 - x225x20x2 - x225x248x2 - x225x103x2 - x225x224x2 - x225x84x2 - x225x301x2 
= 0


x65x85x1 + x285x85x1 
- x85x0x1
- x85x80x1 - x85x39x1 - x85x300x1 - x85x187x1 - x85x96x1 - x85x224x1 
= 0



x65x190x1 + x285x190x1 
- x190x0x1
- x190x141x1 - x190x193x1 - x190x166x1 - x190x224x1 
= 0
x113x190x2 + x99x190x2 + x285x190x2 + x225x190x2 
- x190x0x2
- x190x284x2 - x190x106x2 - x190x20x2 - x190x248x2 - x190x103x2 - x190x224x2 - x190x84x2 - x190x301x2 
= 0



x113x284x2 + x99x284x2 + x285x284x2 + x225x284x2 + x190x284x2 
- x284x0x2
- x284x20x2 - x284x103x2 - x284x224x2 - x284x84x2 - x284x301x2 
= 0
x113x284x3 
- x284x0x3
- x284x141x3 - x284x84x3 - x284x81x3 - x284x301x3 
= 0


x113x256x2 + x99x256x2 + x285x256x2 
- x256x0x2

= 0


x65x110x1 + x285x110x1 
- x110x0x1

= 0




x99x220x2 + x285x220x2 
- x220x0x2
- x220x300x2 - x220x248x2 - x220x103x2 
= 0


x65x80x1 + x285x80x1 + x85x80x1 
- x80x0x1
- x80x300x1 - x80x187x1 - x80x96x1 
= 0



x65x39x1 + x285x39x1 + x85x39x1 
- x39x0x1

= 0
x113x39x2 + x99x39x2 + x285x39x2 + x225x39x2 
- x39x0x2
- x39x248x2 - x39x103x2 - x39x84x2 - x39x301x2 
= 0


x65x141x1 + x285x141x1 + x190x141x1 
- x141x0x1
- x141x224x1 
= 0

x113x141x3 + x284x141x3 
- x141x0x3
- x141x84x3 - x141x301x3 
= 0


x113x106x2 + x99x106x2 + x285x106x2 + x142x106x2 + x167x106x2 + x115x106x2 + x225x106x2 + x190x106x2 
- x106x0x2
- x106x20x2 - x106x224x2 - x106x84x2 - x106x301x2 
= 0


x65x300x1 + x285x300x1 + x85x300x1 + x80x300x1 
- x300x0x1
- x300x96x1 
= 0
x113x300x2 + x99x300x2 + x285x300x2 + x220x300x2 
- x300x0x2
- x300x103x2 
= 0



x113x20x2 + x99x20x2 + x285x20x2 + x142x20x2 + x167x20x2 + x115x20x2 + x225x20x2 + x190x20x2 + x284x20x2 + x106x20x2 
- x20x0x2
- x20x224x2 - x20x84x2 - x20x301x2 
= 0



x113x248x2 + x99x248x2 + x285x248x2 + x225x248x2 + x190x248x2 + x220x248x2 + x39x248x2 
- x248x0x2
- x248x103x2 
= 0
x113x248x3 
- x248x0x3

= 0

x65x193x1 + x194x193x1 + x285x193x1 + x190x193x1 
- x193x0x1
- x193x224x1 
= 0



x65x166x1 + x194x166x1 + x285x166x1 + x190x166x1 
- x166x0x1
- x166x224x1 
= 0



x65x187x1 + x285x187x1 + x85x187x1 + x80x187x1 
- x187x0x1
- x187x96x1 
= 0




x113x103x2 + x99x103x2 + x285x103x2 + x225x103x2 + x190x103x2 + x284x103x2 + x220x103x2 + x39x103x2 + x300x103x2 + x248x103x2 
- x103x0x2

= 0


x65x96x1 + x285x96x1 + x85x96x1 + x80x96x1 + x300x96x1 + x187x96x1 
- x96x0x1

= 0



x65x224x1 + x194x224x1 + x285x224x1 + x111x224x1 + x85x224x1 + x190x224x1 + x141x224x1 + x193x224x1 + x166x224x1 
- x224x0x1

= 0
x113x224x2 + x99x224x2 + x285x224x2 + x142x224x2 + x167x224x2 + x115x224x2 + x225x224x2 + x190x224x2 + x284x224x2 + x106x224x2 + x20x224x2 
- x224x0x2
- x224x84x2 - x224x301x2 
= 0



x113x84x2 + x99x84x2 + x285x84x2 + x142x84x2 + x167x84x2 + x115x84x2 + x225x84x2 + x190x84x2 + x284x84x2 + x39x84x2 + x106x84x2 + x20x84x2 + x224x84x2 
- x84x0x2
- x84x301x2 
= 0
x113x84x3 + x142x84x3 + x72x84x3 + x167x84x3 + x125x84x3 + x284x84x3 + x141x84x3 
- x84x0x3
- x84x301x3 
= 0



x113x81x3 + x284x81x3 
- x81x0x3

= 0


x113x301x2 + x99x301x2 + x285x301x2 + x142x301x2 + x167x301x2 + x115x301x2 + x225x301x2 + x190x301x2 + x284x301x2 + x39x301x2 + x106x301x2 + x20x301x2 + x224x301x2 + x84x301x2 
- x301x0x2

= 0
x113x301x3 + x142x301x3 + x72x301x3 + x167x301x3 + x125x301x3 + x284x301x3 + x141x301x3 + x84x301x3 
- x301x0x3

= 0

2y225 - x113x225x2 - x99x225x2 - x285x225x2 = 0
2y85 - x65x85x1 - x285x85x1 = 0
1y190 - x65x190x1 - x285x190x1 = 0
1y190 - x113x190x2 - x99x190x2 - x285x190x2 - x225x190x2 = 0
1y284 - x113x284x2 - x99x284x2 - x285x284x2 - x225x284x2 - x190x284x2 = 0
1y284 - x113x284x3 = 0
2y256 - x113x256x2 - x99x256x2 - x285x256x2 = 0
2y110 - x65x110x1 - x285x110x1 = 0
2y220 - x99x220x2 - x285x220x2 = 0
2y80 - x65x80x1 - x285x80x1 - x85x80x1 = 0
1y39 - x65x39x1 - x285x39x1 - x85x39x1 = 0
1y39 - x113x39x2 - x99x39x2 - x285x39x2 - x225x39x2 = 0
1y141 - x65x141x1 - x285x141x1 - x190x141x1 = 0
1y141 - x113x141x3 - x284x141x3 = 0
2y106 - x113x106x2 - x99x106x2 - x285x106x2 - x142x106x2 - x167x106x2 - x115x106x2 - x225x106x2 - x190x106x2 = 0
1y300 - x65x300x1 - x285x300x1 - x85x300x1 - x80x300x1 = 0
1y300 - x113x300x2 - x99x300x2 - x285x300x2 - x220x300x2 = 0
2y20 - x113x20x2 - x99x20x2 - x285x20x2 - x142x20x2 - x167x20x2 - x115x20x2 - x225x20x2 - x190x20x2 - x284x20x2 - x106x20x2 = 0
1y248 - x113x248x2 - x99x248x2 - x285x248x2 - x225x248x2 - x190x248x2 - x220x248x2 - x39x248x2 = 0
1y248 - x113x248x3 = 0
2y193 - x65x193x1 - x194x193x1 - x285x193x1 - x190x193x1 = 0
2y166 - x65x166x1 - x194x166x1 - x285x166x1 - x190x166x1 = 0
2y187 - x65x187x1 - x285x187x1 - x85x187x1 - x80x187x1 = 0
2y103 - x113x103x2 - x99x103x2 - x285x103x2 - x225x103x2 - x190x103x2 - x284x103x2 - x220x103x2 - x39x103x2 - x300x103x2 - x248x103x2 = 0
2y96 - x65x96x1 - x285x96x1 - x85x96x1 - x80x96x1 - x300x96x1 - x187x96x1 = 0
1y224 - x65x224x1 - x194x224x1 - x285x224x1 - x111x224x1 - x85x224x1 - x190x224x1 - x141x224x1 - x193x224x1 - x166x224x1 = 0
1y224 - x113x224x2 - x99x224x2 - x285x224x2 - x142x224x2 - x167x224x2 - x115x224x2 - x225x224x2 - x190x224x2 - x284x224x2 - x106x224x2 - x20x224x2 = 0
1y84 - x113x84x2 - x99x84x2 - x285x84x2 - x142x84x2 - x167x84x2 - x115x84x2 - x225x84x2 - x190x84x2 - x284x84x2 - x39x84x2 - x106x84x2 - x20x84x2 - x224x84x2 = 0
1y84 - x113x84x3 - x142x84x3 - x72x84x3 - x167x84x3 - x125x84x3 - x284x84x3 - x141x84x3 = 0
2y81 - x113x81x3 - x284x81x3 = 0
1y301 - x113x301x2 - x99x301x2 - x285x301x2 - x142x301x2 - x167x301x2 - x115x301x2 - x225x301x2 - x190x301x2 - x284x301x2 - x39x301x2 - x106x301x2 - x20x301x2 - x224x301x2 - x84x301x2 = 0
1y301 - x113x301x3 - x142x301x3 - x72x301x3 - x167x301x3 - x125x301x3 - x284x301x3 - x141x301x3 - x84x301x3 = 0

s113 - s225 + 7.973026z113z225z2 <= 6.61
s113 - s190 + 7.979631z113z190z2 <= 6.61
s113 - s284 + 7.999631z113z284z2 <= 6.61
s113 - s284 + 7.999631z113z284z3 <= 6.61
s113 - s256 + 8.105125z113z256z2 <= 6.61
s113 - s39 + 8.130609z113z39z2 <= 6.61
s113 - s141 + 8.026351z113z141z3 <= 6.61
s113 - s106 + 7.865946z113z106z2 <= 6.61
s113 - s300 + 8.252165z113z300z2 <= 6.61
s113 - s20 + 7.861873z113z20z2 <= 6.61
s113 - s248 + 8.200426z113z248z2 <= 6.61
s113 - s248 + 8.200426z113z248z3 <= 6.61
s113 - s103 + 8.218274z113z103z2 <= 6.61
s113 - s224 + 7.879130z113z224z2 <= 6.61
s113 - s84 + 7.866385z113z84z2 <= 6.61
s113 - s84 + 7.866385z113z84z3 <= 6.61
s113 - s81 + 8.282956z113z81z3 <= 6.61
s113 - s301 + 7.872365z113z301z2 <= 6.61
s113 - s301 + 7.872365z113z301z3 <= 6.61
s65 - s85 + 8.043737z65z85z1 <= 6.62
s65 - s190 + 7.983327z65z190z1 <= 6.62
s65 - s110 + 7.842206z65z110z1 <= 6.62
s65 - s80 + 8.072434z65z80z1 <= 6.62
s65 - s39 + 8.059470z65z39z1 <= 6.62
s65 - s141 + 8.020665z65z141z1 <= 6.62
s65 - s300 + 8.117232z65z300z1 <= 6.62
s65 - s193 + 7.996957z65z193z1 <= 6.62
s65 - s166 + 7.999046z65z166z1 <= 6.62
s65 - s187 + 8.076354z65z187z1 <= 6.62
s65 - s96 + 8.089231z65z96z1 <= 6.62
s65 - s224 + 8.009384z65z224z1 <= 6.62
s99 - s225 + 7.621634z99z225z2 <= 6.41
s99 - s190 + 7.629510z99z190z2 <= 6.41
s99 - s284 + 7.649086z99z284z2 <= 6.41
s99 - s256 + 7.814672z99z256z2 <= 6.41
s99 - s220 + 7.856004z99z220z2 <= 6.41
s99 - s39 + 7.771687z99z39z2 <= 6.41
s99 - s106 + 7.564610z99z106z2 <= 6.41
s99 - s300 + 7.890066z99z300z2 <= 6.41
s99 - s20 + 7.566624z99z20z2 <= 6.41
s99 - s248 + 7.840343z99z248z2 <= 6.41
s99 - s103 + 7.859041z99z103z2 <= 6.41
s99 - s224 + 7.584977z99z224z2 <= 6.41
s99 - s84 + 7.587137z99z84z2 <= 6.41
s99 - s301 + 7.590017z99z301z2 <= 6.41
s194 - s193 + 8.316898z194z193z1 <= 7.16
s194 - s166 + 8.322509z194z166z1 <= 7.16
s194 - s224 + 8.331231z194z224z1 <= 7.16
s285 - s225 + 7.758806z285z225z2 <= 6.46
s285 - s85 + 7.784279z285z85z1 <= 6.46
s285 - s190 + 7.767705z285z190z1 <= 6.46
s285 - s190 + 7.767705z285z190z2 <= 6.46
s285 - s284 + 7.776989z285z284z2 <= 6.46
s285 - s256 + 7.638958z285z256z2 <= 6.46
s285 - s110 + 7.622050z285z110z1 <= 6.46
s285 - s220 + 7.812870z285z220z2 <= 6.46
s285 - s80 + 7.808838z285z80z1 <= 6.46
s285 - s39 + 7.811595z285z39z1 <= 6.46
s285 - s39 + 7.811595z285z39z2 <= 6.46
s285 - s141 + 7.796451z285z141z1 <= 6.46
s285 - s106 + 7.816981z285z106z2 <= 6.46
s285 - s300 + 7.854879z285z300z1 <= 6.46
s285 - s300 + 7.854879z285z300z2 <= 6.46
s285 - s20 + 7.823585z285z20z2 <= 6.46
s285 - s248 + 7.854197z285z248z2 <= 6.46
s285 - s193 + 7.838403z285z193z1 <= 6.46
s285 - s166 + 7.824140z285z166z1 <= 6.46
s285 - s187 + 7.811851z285z187z1 <= 6.46
s285 - s103 + 7.878099z285z103z2 <= 6.46
s285 - s96 + 7.824571z285z96z1 <= 6.46
s285 - s224 + 7.837156z285z224z1 <= 6.46
s285 - s224 + 7.837156z285z224z2 <= 6.46
s285 - s84 + 7.850309z285z84z2 <= 6.46
s285 - s301 + 7.850252z285z301z2 <= 6.46
s142 - s106 + 8.266897z142z106z2 <= 7.14
s142 - s20 + 8.270569z142z20z2 <= 7.14
s142 - s224 + 8.287894z142z224z2 <= 7.14
s142 - s84 + 8.294044z142z84z2 <= 7.14
s142 - s84 + 8.294044z142z84z3 <= 7.14
s142 - s301 + 8.295856z142z301z2 <= 7.14
s142 - s301 + 8.295856z142z301z3 <= 7.14
s72 - s84 + 8.289016z72z84z3 <= 7.14
s72 - s301 + 8.290904z72z301z3 <= 7.14
s111 - s224 + 8.410044z111z224z1 <= 7.27
s167 - s106 + 8.275613z167z106z2 <= 7.17
s167 - s20 + 8.281603z167z20z2 <= 7.17
s167 - s224 + 8.296383z167z224z2 <= 7.17
s167 - s84 + 8.308062z167z84z2 <= 7.17
s167 - s84 + 8.308062z167z84z3 <= 7.17
s167 - s301 + 8.308228z167z301z2 <= 7.17
s167 - s301 + 8.308228z167z301z3 <= 7.17
s115 - s106 + 8.126534z115z106z2 <= 7.05
s115 - s20 + 8.128269z115z20z2 <= 7.05
s115 - s224 + 8.146671z115z224z2 <= 7.05
s115 - s84 + 8.149630z115z84z2 <= 7.05
s115 - s301 + 8.152066z115z301z2 <= 7.05
s125 - s84 + 8.495062z125z84z3 <= 7.28
s125 - s301 + 8.490510z125z301z3 <= 7.28
s225 - s190 + 9.019428z225z190z2 <= 8.01
s225 - s284 + 9.037488z225z284z2 <= 8.01
s225 - s39 + 9.174655z225z39z2 <= 8.01
s225 - s106 + 9.158024z225z106z2 <= 8.01
s225 - s20 + 9.167339z225z20z2 <= 8.01
s225 - s248 + 9.246455z225z248z2 <= 8.01
s225 - s103 + 9.260954z225z103z2 <= 8.01
s225 - s224 + 9.165635z225z224z2 <= 8.01
s225 - s84 + 9.189382z225z84z2 <= 8.01
s225 - s301 + 9.184484z225z301z2 <= 8.01
s85 - s80 + 9.116667z85z80z1 <= 8.05
s85 - s39 + 9.145452z85z39z1 <= 8.05
s85 - s300 + 9.132463z85z300z1 <= 8.05
s85 - s187 + 9.203912z85z187z1 <= 8.05
s85 - s96 + 9.202315z85z96z1 <= 8.05
s85 - s224 + 9.437012z85z224z1 <= 8.05
s190 - s284 + 9.090000z190z284z2 <= 8.07
s190 - s141 + 9.117140z190z141z1 <= 8.07
s190 - s106 + 9.219814z190z106z2 <= 8.07
s190 - s20 + 9.229025z190z20z2 <= 8.07
s190 - s248 + 9.302856z190z248z2 <= 8.07
s190 - s193 + 9.264364z190z193z1 <= 8.07
s190 - s166 + 9.212672z190z166z1 <= 8.07
s190 - s103 + 9.316667z190z103z2 <= 8.07
s190 - s224 + 9.226205z190z224z1 <= 8.07
s190 - s224 + 9.226205z190z224z2 <= 8.07
s190 - s84 + 9.250123z190z84z2 <= 8.07
s190 - s301 + 9.244991z190z301z2 <= 8.07
s284 - s141 + 9.157488z284z141z3 <= 8.13
s284 - s20 + 9.306131z284z20z2 <= 8.13
s284 - s103 + 9.357841z284z103z2 <= 8.13
s284 - s224 + 9.302047z284z224z2 <= 8.13
s284 - s84 + 9.326073z284z84z2 <= 8.13
s284 - s84 + 9.326073z284z84z3 <= 8.13
s284 - s81 + 9.523728z284z81z3 <= 8.13
s284 - s301 + 9.320671z284z301z2 <= 8.13
s284 - s301 + 9.320671z284z301z3 <= 8.13
s220 - s300 + 9.212164z220z300z2 <= 8.17
s220 - s248 + 9.270222z220z248z2 <= 8.17
s220 - s103 + 9.286428z220z103z2 <= 8.17
s80 - s300 + 9.232069z80z300z1 <= 8.18
s80 - s187 + 9.273571z80z187z1 <= 8.18
s80 - s96 + 9.268945z80z96z1 <= 8.18
s39 - s248 + 9.271802z39z248z2 <= 8.20
s39 - s103 + 9.287686z39z103z2 <= 8.20
s39 - s84 + 9.538493z39z84z2 <= 8.20
s39 - s301 + 9.532866z39z301z2 <= 8.20
s141 - s224 + 9.441021z141z224z1 <= 8.25
s141 - s84 + 9.464993z141z84z3 <= 8.25
s141 - s301 + 9.459231z141z301z3 <= 8.25
s106 - s20 + 9.299428z106z20z2 <= 8.29
s106 - s224 + 9.311082z106z224z2 <= 8.29
s106 - s84 + 9.325901z106z84z2 <= 8.29
s106 - s301 + 9.323994z106z301z2 <= 8.29
s300 - s103 + 9.410885z300z103z2 <= 8.31
s300 - s96 + 9.431656z300z96z1 <= 8.31
s20 - s224 + 9.348856z20z224z2 <= 8.33
s20 - s84 + 9.357488z20z84z2 <= 8.33
s20 - s301 + 9.356667z20z301z2 <= 8.33
s248 - s103 + 9.354037z248z103z2 <= 8.33
s193 - s224 + 9.406666z193z224z1 <= 8.36
s166 - s224 + 9.394907z166z224z1 <= 8.38
s187 - s96 + 9.434907z187z96z1 <= 8.42
s224 - s84 + 9.514037z224z84z2 <= 8.49
s224 - s301 + 9.508856z224z301z2 <= 8.49
s84 - s301 + 9.566668z84z301z2 <= 8.56
s84 - s301 + 9.566668z84z301z3 <= 8.56

x113x225x2 - 2z113z225z2 <= 0
x113x190x2 - 1z113z190z2 <= 0
x113x284x2 - 1z113z284z2 <= 0
x113x284x3 - 1z113z284z3 <= 0
x113x256x2 - 2z113z256z2 <= 0
x113x39x2 - 1z113z39z2 <= 0
x113x141x3 - 1z113z141z3 <= 0
x113x106x2 - 2z113z106z2 <= 0
x113x300x2 - 1z113z300z2 <= 0
x113x20x2 - 2z113z20z2 <= 0
x113x248x2 - 1z113z248z2 <= 0
x113x248x3 - 1z113z248z3 <= 0
x113x103x2 - 2z113z103z2 <= 0
x113x224x2 - 1z113z224z2 <= 0
x113x84x2 - 1z113z84z2 <= 0
x113x84x3 - 1z113z84z3 <= 0
x113x81x3 - 2z113z81z3 <= 0
x113x301x2 - 1z113z301z2 <= 0
x113x301x3 - 1z113z301z3 <= 0
x65x85x1 - 2z65z85z1 <= 0
x65x190x1 - 1z65z190z1 <= 0
x65x110x1 - 2z65z110z1 <= 0
x65x80x1 - 2z65z80z1 <= 0
x65x39x1 - 1z65z39z1 <= 0
x65x141x1 - 1z65z141z1 <= 0
x65x300x1 - 1z65z300z1 <= 0
x65x193x1 - 2z65z193z1 <= 0
x65x166x1 - 2z65z166z1 <= 0
x65x187x1 - 2z65z187z1 <= 0
x65x96x1 - 2z65z96z1 <= 0
x65x224x1 - 1z65z224z1 <= 0
x99x225x2 - 2z99z225z2 <= 0
x99x190x2 - 1z99z190z2 <= 0
x99x284x2 - 1z99z284z2 <= 0
x99x256x2 - 2z99z256z2 <= 0
x99x220x2 - 2z99z220z2 <= 0
x99x39x2 - 1z99z39z2 <= 0
x99x106x2 - 2z99z106z2 <= 0
x99x300x2 - 1z99z300z2 <= 0
x99x20x2 - 2z99z20z2 <= 0
x99x248x2 - 1z99z248z2 <= 0
x99x103x2 - 2z99z103z2 <= 0
x99x224x2 - 1z99z224z2 <= 0
x99x84x2 - 1z99z84z2 <= 0
x99x301x2 - 1z99z301z2 <= 0
x194x193x1 - 2z194z193z1 <= 0
x194x166x1 - 2z194z166z1 <= 0
x194x224x1 - 1z194z224z1 <= 0
x285x225x2 - 2z285z225z2 <= 0
x285x85x1 - 2z285z85z1 <= 0
x285x190x1 - 1z285z190z1 <= 0
x285x190x2 - 1z285z190z2 <= 0
x285x284x2 - 1z285z284z2 <= 0
x285x256x2 - 2z285z256z2 <= 0
x285x110x1 - 2z285z110z1 <= 0
x285x220x2 - 2z285z220z2 <= 0
x285x80x1 - 2z285z80z1 <= 0
x285x39x1 - 1z285z39z1 <= 0
x285x39x2 - 1z285z39z2 <= 0
x285x141x1 - 1z285z141z1 <= 0
x285x106x2 - 2z285z106z2 <= 0
x285x300x1 - 1z285z300z1 <= 0
x285x300x2 - 1z285z300z2 <= 0
x285x20x2 - 2z285z20z2 <= 0
x285x248x2 - 1z285z248z2 <= 0
x285x193x1 - 2z285z193z1 <= 0
x285x166x1 - 2z285z166z1 <= 0
x285x187x1 - 2z285z187z1 <= 0
x285x103x2 - 2z285z103z2 <= 0
x285x96x1 - 2z285z96z1 <= 0
x285x224x1 - 1z285z224z1 <= 0
x285x224x2 - 1z285z224z2 <= 0
x285x84x2 - 1z285z84z2 <= 0
x285x301x2 - 1z285z301z2 <= 0
x142x106x2 - 2z142z106z2 <= 0
x142x20x2 - 2z142z20z2 <= 0
x142x224x2 - 1z142z224z2 <= 0
x142x84x2 - 1z142z84z2 <= 0
x142x84x3 - 1z142z84z3 <= 0
x142x301x2 - 1z142z301z2 <= 0
x142x301x3 - 1z142z301z3 <= 0
x72x84x3 - 1z72z84z3 <= 0
x72x301x3 - 1z72z301z3 <= 0
x111x224x1 - 1z111z224z1 <= 0
x167x106x2 - 2z167z106z2 <= 0
x167x20x2 - 2z167z20z2 <= 0
x167x224x2 - 1z167z224z2 <= 0
x167x84x2 - 1z167z84z2 <= 0
x167x84x3 - 1z167z84z3 <= 0
x167x301x2 - 1z167z301z2 <= 0
x167x301x3 - 1z167z301z3 <= 0
x115x106x2 - 2z115z106z2 <= 0
x115x20x2 - 2z115z20z2 <= 0
x115x224x2 - 1z115z224z2 <= 0
x115x84x2 - 1z115z84z2 <= 0
x115x301x2 - 1z115z301z2 <= 0
x125x84x3 - 1z125z84z3 <= 0
x125x301x3 - 1z125z301z3 <= 0
x225x190x2 - 1z225z190z2 <= 0
x225x284x2 - 1z225z284z2 <= 0
x225x39x2 - 1z225z39z2 <= 0
x225x106x2 - 2z225z106z2 <= 0
x225x20x2 - 2z225z20z2 <= 0
x225x248x2 - 1z225z248z2 <= 0
x225x103x2 - 2z225z103z2 <= 0
x225x224x2 - 1z225z224z2 <= 0
x225x84x2 - 1z225z84z2 <= 0
x225x301x2 - 1z225z301z2 <= 0
x225x0x2 <= 2
x85x80x1 - 2z85z80z1 <= 0
x85x39x1 - 1z85z39z1 <= 0
x85x300x1 - 1z85z300z1 <= 0
x85x187x1 - 2z85z187z1 <= 0
x85x96x1 - 2z85z96z1 <= 0
x85x224x1 - 1z85z224z1 <= 0
x85x0x1 <= 2
x190x284x2 - 1z190z284z2 <= 0
x190x141x1 - 1z190z141z1 <= 0
x190x106x2 - 2z190z106z2 <= 0
x190x20x2 - 2z190z20z2 <= 0
x190x248x2 - 1z190z248z2 <= 0
x190x193x1 - 2z190z193z1 <= 0
x190x166x1 - 2z190z166z1 <= 0
x190x103x2 - 2z190z103z2 <= 0
x190x224x1 - 1z190z224z1 <= 0
x190x224x2 - 1z190z224z2 <= 0
x190x84x2 - 1z190z84z2 <= 0
x190x301x2 - 1z190z301z2 <= 0
x190x0x1 <= 1
x190x0x2 <= 1
x284x141x3 - 1z284z141z3 <= 0
x284x20x2 - 2z284z20z2 <= 0
x284x103x2 - 2z284z103z2 <= 0
x284x224x2 - 1z284z224z2 <= 0
x284x84x2 - 1z284z84z2 <= 0
x284x84x3 - 1z284z84z3 <= 0
x284x81x3 - 2z284z81z3 <= 0
x284x301x2 - 1z284z301z2 <= 0
x284x301x3 - 1z284z301z3 <= 0
x284x0x2 <= 1
x284x0x3 <= 1
x256x0x2 <= 2
x110x0x1 <= 2
x220x300x2 - 1z220z300z2 <= 0
x220x248x2 - 1z220z248z2 <= 0
x220x103x2 - 2z220z103z2 <= 0
x220x0x2 <= 2
x80x300x1 - 1z80z300z1 <= 0
x80x187x1 - 2z80z187z1 <= 0
x80x96x1 - 2z80z96z1 <= 0
x80x0x1 <= 2
x39x248x2 - 1z39z248z2 <= 0
x39x103x2 - 2z39z103z2 <= 0
x39x84x2 - 1z39z84z2 <= 0
x39x301x2 - 1z39z301z2 <= 0
x39x0x1 <= 1
x39x0x2 <= 1
x141x224x1 - 1z141z224z1 <= 0
x141x84x3 - 1z141z84z3 <= 0
x141x301x3 - 1z141z301z3 <= 0
x141x0x1 <= 1
x141x0x3 <= 1
x106x20x2 - 2z106z20z2 <= 0
x106x224x2 - 1z106z224z2 <= 0
x106x84x2 - 1z106z84z2 <= 0
x106x301x2 - 1z106z301z2 <= 0
x106x0x2 <= 2
x300x103x2 - 2z300z103z2 <= 0
x300x96x1 - 2z300z96z1 <= 0
x300x0x1 <= 1
x300x0x2 <= 1
x20x224x2 - 1z20z224z2 <= 0
x20x84x2 - 1z20z84z2 <= 0
x20x301x2 - 1z20z301z2 <= 0
x20x0x2 <= 2
x248x103x2 - 2z248z103z2 <= 0
x248x0x2 <= 1
x248x0x3 <= 1
x193x224x1 - 1z193z224z1 <= 0
x193x0x1 <= 2
x166x224x1 - 1z166z224z1 <= 0
x166x0x1 <= 2
x187x96x1 - 2z187z96z1 <= 0
x187x0x1 <= 2
x103x0x2 <= 2
x96x0x1 <= 2
x224x84x2 - 1z224z84z2 <= 0
x224x301x2 - 1z224z301z2 <= 0
x224x0x1 <= 1
x224x0x2 <= 1
x84x301x2 - 1z84z301z2 <= 0
x84x301x3 - 1z84z301z3 <= 0
x84x0x2 <= 1
x84x0x3 <= 1
x81x0x3 <= 2
x301x0x2 <= 1
x301x0x3 <= 1

s225 - 6.00z113z225z2 >= 0
s225 - 6.00z99z225z2 >= 0
s225 - 6.00z285z225z2 >= 0
s85 - 6.00z65z85z1 >= 0
s85 - 6.00z285z85z1 >= 0
s190 - 6.00z113z190z2 >= 0
s190 - 6.00z65z190z1 >= 0
s190 - 6.00z99z190z2 >= 0
s190 - 6.00z285z190z1 >= 0
s190 - 6.00z285z190z2 >= 0
s190 - 6.00z225z190z2 >= 0
s284 - 6.00z113z284z2 >= 0
s284 - 6.00z113z284z3 >= 0
s284 - 6.00z99z284z2 >= 0
s284 - 6.00z285z284z2 >= 0
s284 - 6.00z225z284z2 >= 0
s284 - 6.00z190z284z2 >= 0
s256 - 6.00z113z256z2 >= 0
s256 - 6.00z99z256z2 >= 0
s256 - 6.00z285z256z2 >= 0
s110 - 6.00z65z110z1 >= 0
s110 - 6.00z285z110z1 >= 0
s220 - 6.00z99z220z2 >= 0
s220 - 6.00z285z220z2 >= 0
s80 - 6.00z65z80z1 >= 0
s80 - 6.00z285z80z1 >= 0
s80 - 6.00z85z80z1 >= 0
s39 - 6.00z113z39z2 >= 0
s39 - 6.00z65z39z1 >= 0
s39 - 6.00z99z39z2 >= 0
s39 - 6.00z285z39z1 >= 0
s39 - 6.00z285z39z2 >= 0
s39 - 6.00z225z39z2 >= 0
s39 - 6.00z85z39z1 >= 0
s141 - 6.00z113z141z3 >= 0
s141 - 6.00z65z141z1 >= 0
s141 - 6.00z285z141z1 >= 0
s141 - 6.00z190z141z1 >= 0
s141 - 6.00z284z141z3 >= 0
s106 - 6.00z113z106z2 >= 0
s106 - 6.00z99z106z2 >= 0
s106 - 6.00z285z106z2 >= 0
s106 - 6.00z142z106z2 >= 0
s106 - 6.00z167z106z2 >= 0
s106 - 6.00z115z106z2 >= 0
s106 - 6.00z225z106z2 >= 0
s106 - 6.00z190z106z2 >= 0
s300 - 6.00z113z300z2 >= 0
s300 - 6.00z65z300z1 >= 0
s300 - 6.00z99z300z2 >= 0
s300 - 6.00z285z300z1 >= 0
s300 - 6.00z285z300z2 >= 0
s300 - 6.00z85z300z1 >= 0
s300 - 6.00z220z300z2 >= 0
s300 - 6.00z80z300z1 >= 0
s20 - 6.00z113z20z2 >= 0
s20 - 6.00z99z20z2 >= 0
s20 - 6.00z285z20z2 >= 0
s20 - 6.00z142z20z2 >= 0
s20 - 6.00z167z20z2 >= 0
s20 - 6.00z115z20z2 >= 0
s20 - 6.00z225z20z2 >= 0
s20 - 6.00z190z20z2 >= 0
s20 - 6.00z284z20z2 >= 0
s20 - 6.00z106z20z2 >= 0
s248 - 6.00z113z248z2 >= 0
s248 - 6.00z113z248z3 >= 0
s248 - 6.00z99z248z2 >= 0
s248 - 6.00z285z248z2 >= 0
s248 - 6.00z225z248z2 >= 0
s248 - 6.00z190z248z2 >= 0
s248 - 6.00z220z248z2 >= 0
s248 - 6.00z39z248z2 >= 0
s193 - 6.00z65z193z1 >= 0
s193 - 6.00z194z193z1 >= 0
s193 - 6.00z285z193z1 >= 0
s193 - 6.00z190z193z1 >= 0
s166 - 6.00z65z166z1 >= 0
s166 - 6.00z194z166z1 >= 0
s166 - 6.00z285z166z1 >= 0
s166 - 6.00z190z166z1 >= 0
s187 - 6.00z65z187z1 >= 0
s187 - 6.00z285z187z1 >= 0
s187 - 6.00z85z187z1 >= 0
s187 - 6.00z80z187z1 >= 0
s103 - 6.00z113z103z2 >= 0
s103 - 6.00z99z103z2 >= 0
s103 - 6.00z285z103z2 >= 0
s103 - 6.00z225z103z2 >= 0
s103 - 6.00z190z103z2 >= 0
s103 - 6.00z284z103z2 >= 0
s103 - 6.00z220z103z2 >= 0
s103 - 6.00z39z103z2 >= 0
s103 - 6.00z300z103z2 >= 0
s103 - 6.00z248z103z2 >= 0
s96 - 6.00z65z96z1 >= 0
s96 - 6.00z285z96z1 >= 0
s96 - 6.00z85z96z1 >= 0
s96 - 6.00z80z96z1 >= 0
s96 - 6.00z300z96z1 >= 0
s96 - 6.00z187z96z1 >= 0
s224 - 6.00z113z224z2 >= 0
s224 - 6.00z65z224z1 >= 0
s224 - 6.00z99z224z2 >= 0
s224 - 6.00z194z224z1 >= 0
s224 - 6.00z285z224z1 >= 0
s224 - 6.00z285z224z2 >= 0
s224 - 6.00z142z224z2 >= 0
s224 - 6.00z111z224z1 >= 0
s224 - 6.00z167z224z2 >= 0
s224 - 6.00z115z224z2 >= 0
s224 - 6.00z225z224z2 >= 0
s224 - 6.00z85z224z1 >= 0
s224 - 6.00z190z224z1 >= 0
s224 - 6.00z190z224z2 >= 0
s224 - 6.00z284z224z2 >= 0
s224 - 6.00z141z224z1 >= 0
s224 - 6.00z106z224z2 >= 0
s224 - 6.00z20z224z2 >= 0
s224 - 6.00z193z224z1 >= 0
s224 - 6.00z166z224z1 >= 0
s84 - 6.00z113z84z2 >= 0
s84 - 6.00z113z84z3 >= 0
s84 - 6.00z99z84z2 >= 0
s84 - 6.00z285z84z2 >= 0
s84 - 6.00z142z84z2 >= 0
s84 - 6.00z142z84z3 >= 0
s84 - 6.00z72z84z3 >= 0
s84 - 6.00z167z84z2 >= 0
s84 - 6.00z167z84z3 >= 0
s84 - 6.00z115z84z2 >= 0
s84 - 6.00z125z84z3 >= 0
s84 - 6.00z225z84z2 >= 0
s84 - 6.00z190z84z2 >= 0
s84 - 6.00z284z84z2 >= 0
s84 - 6.00z284z84z3 >= 0
s84 - 6.00z39z84z2 >= 0
s84 - 6.00z141z84z3 >= 0
s84 - 6.00z106z84z2 >= 0
s84 - 6.00z20z84z2 >= 0
s84 - 6.00z224z84z2 >= 0
s81 - 6.00z113z81z3 >= 0
s81 - 6.00z284z81z3 >= 0
s301 - 6.00z113z301z2 >= 0
s301 - 6.00z113z301z3 >= 0
s301 - 6.00z99z301z2 >= 0
s301 - 6.00z285z301z2 >= 0
s301 - 6.00z142z301z2 >= 0
s301 - 6.00z142z301z3 >= 0
s301 - 6.00z72z301z3 >= 0
s301 - 6.00z167z301z2 >= 0
s301 - 6.00z167z301z3 >= 0
s301 - 6.00z115z301z2 >= 0
s301 - 6.00z125z301z3 >= 0
s301 - 6.00z225z301z2 >= 0
s301 - 6.00z190z301z2 >= 0
s301 - 6.00z284z301z2 >= 0
s301 - 6.00z284z301z3 >= 0
s301 - 6.00z39z301z2 >= 0
s301 - 6.00z141z301z3 >= 0
s301 - 6.00z106z301z2 >= 0
s301 - 6.00z20z301z2 >= 0
s301 - 6.00z224z301z2 >= 0
s301 - 6.00z84z301z2 >= 0
s301 - 6.00z84z301z3 >= 0

Bounds
s113 = 6.612964
s65 = 6.615148
s99 = 6.411132
s194 = 7.161264
s285 = 6.463585
s142 = 7.135579
s72 = 7.136992
s111 = 7.270840
s167 = 7.174728
s112 = 7.500302
s191 = 7.491409
s115 = 7.050523
s124 = 7.555361
s125 = 7.282878
7.010000 <= s225 <= 8.010000
7.050000 <= s85 <= 8.050000
7.070000 <= s190 <= 8.070000
7.130000 <= s284 <= 8.130000
7.140000 <= s256 <= 8.140000
7.170000 <= s110 <= 8.170000
7.170000 <= s220 <= 8.170000
7.180000 <= s80 <= 8.180000
7.200000 <= s39 <= 8.200000
7.250000 <= s141 <= 8.250000
7.290000 <= s106 <= 8.290000
7.310000 <= s300 <= 8.310000
7.330000 <= s20 <= 8.330000
7.330000 <= s248 <= 8.330000
7.360000 <= s193 <= 8.360000
7.380000 <= s166 <= 8.380000
7.420000 <= s187 <= 8.420000
7.430000 <= s103 <= 8.430000
7.440000 <= s96 <= 8.440000
7.490000 <= s224 <= 8.490000
7.560000 <= s84 <= 8.560000
7.570000 <= s81 <= 8.570000
7.580000 <= s301 <= 8.580000

General
x113x225x2 x113x190x2 x113x284x2 x113x284x3 x113x256x2 x113x39x2 x113x141x3 x113x106x2 x113x300x2 x113x20x2 x113x248x2 x113x248x3 x113x103x2 x113x224x2 x113x84x2 x113x84x3 x113x81x3 x113x301x2 x113x301x3 
x65x85x1 x65x190x1 x65x110x1 x65x80x1 x65x39x1 x65x141x1 x65x300x1 x65x193x1 x65x166x1 x65x187x1 x65x96x1 x65x224x1 
x99x225x2 x99x190x2 x99x284x2 x99x256x2 x99x220x2 x99x39x2 x99x106x2 x99x300x2 x99x20x2 x99x248x2 x99x103x2 x99x224x2 x99x84x2 x99x301x2 
x194x193x1 x194x166x1 x194x224x1 
x285x225x2 x285x85x1 x285x190x1 x285x190x2 x285x284x2 x285x256x2 x285x110x1 x285x220x2 x285x80x1 x285x39x1 x285x39x2 x285x141x1 x285x106x2 x285x300x1 x285x300x2 x285x20x2 x285x248x2 x285x193x1 x285x166x1 x285x187x1 x285x103x2 x285x96x1 x285x224x1 x285x224x2 x285x84x2 x285x301x2 
x142x106x2 x142x20x2 x142x224x2 x142x84x2 x142x84x3 x142x301x2 x142x301x3 
x72x84x3 x72x301x3 
x111x224x1 
x167x106x2 x167x20x2 x167x224x2 x167x84x2 x167x84x3 x167x301x2 x167x301x3 


x115x106x2 x115x20x2 x115x224x2 x115x84x2 x115x301x2 

x125x84x3 x125x301x3 
x225x190x2 x225x284x2 x225x39x2 x225x106x2 x225x20x2 x225x248x2 x225x103x2 x225x224x2 x225x84x2 x225x301x2 x225x0x2 
x85x80x1 x85x39x1 x85x300x1 x85x187x1 x85x96x1 x85x224x1 x85x0x1 
x190x284x2 x190x141x1 x190x106x2 x190x20x2 x190x248x2 x190x193x1 x190x166x1 x190x103x2 x190x224x1 x190x224x2 x190x84x2 x190x301x2 x190x0x1 x190x0x2 
x284x141x3 x284x20x2 x284x103x2 x284x224x2 x284x84x2 x284x84x3 x284x81x3 x284x301x2 x284x301x3 x284x0x2 x284x0x3 
x256x0x2 
x110x0x1 
x220x300x2 x220x248x2 x220x103x2 x220x0x2 
x80x300x1 x80x187x1 x80x96x1 x80x0x1 
x39x248x2 x39x103x2 x39x84x2 x39x301x2 x39x0x1 x39x0x2 
x141x224x1 x141x84x3 x141x301x3 x141x0x1 x141x0x3 
x106x20x2 x106x224x2 x106x84x2 x106x301x2 x106x0x2 
x300x103x2 x300x96x1 x300x0x1 x300x0x2 
x20x224x2 x20x84x2 x20x301x2 x20x0x2 
x248x103x2 x248x0x2 x248x0x3 
x193x224x1 x193x0x1 
x166x224x1 x166x0x1 
x187x96x1 x187x0x1 
x103x0x2 
x96x0x1 
x224x84x2 x224x301x2 x224x0x1 x224x0x2 
x84x301x2 x84x301x3 x84x0x2 x84x0x3 
x81x0x3 
x301x0x2 x301x0x3 

Binaries
y225 y85 y190 y284 y256 y110 y220 y80 y39 y141 y106 y300 y20 y248 y193 y166 y187 y103 y96 y224 y84 y81 y301 
z113z225z2 z113z190z2 z113z284z2 z113z284z3 z113z256z2 z113z39z2 z113z141z3 z113z106z2 z113z300z2 z113z20z2 z113z248z2 z113z248z3 z113z103z2 z113z224z2 z113z84z2 z113z84z3 z113z81z3 z113z301z2 z113z301z3 
z65z85z1 z65z190z1 z65z110z1 z65z80z1 z65z39z1 z65z141z1 z65z300z1 z65z193z1 z65z166z1 z65z187z1 z65z96z1 z65z224z1 
z99z225z2 z99z190z2 z99z284z2 z99z256z2 z99z220z2 z99z39z2 z99z106z2 z99z300z2 z99z20z2 z99z248z2 z99z103z2 z99z224z2 z99z84z2 z99z301z2 
z194z193z1 z194z166z1 z194z224z1 
z285z225z2 z285z85z1 z285z190z1 z285z190z2 z285z284z2 z285z256z2 z285z110z1 z285z220z2 z285z80z1 z285z39z1 z285z39z2 z285z141z1 z285z106z2 z285z300z1 z285z300z2 z285z20z2 z285z248z2 z285z193z1 z285z166z1 z285z187z1 z285z103z2 z285z96z1 z285z224z1 z285z224z2 z285z84z2 z285z301z2 
z142z106z2 z142z20z2 z142z224z2 z142z84z2 z142z84z3 z142z301z2 z142z301z3 
z72z84z3 z72z301z3 
z111z224z1 
z167z106z2 z167z20z2 z167z224z2 z167z84z2 z167z84z3 z167z301z2 z167z301z3 


z115z106z2 z115z20z2 z115z224z2 z115z84z2 z115z301z2 

z125z84z3 z125z301z3 
z225z190z2 z225z284z2 z225z39z2 z225z106z2 z225z20z2 z225z248z2 z225z103z2 z225z224z2 z225z84z2 z225z301z2 
z85z80z1 z85z39z1 z85z300z1 z85z187z1 z85z96z1 z85z224z1 
z190z284z2 z190z141z1 z190z106z2 z190z20z2 z190z248z2 z190z193z1 z190z166z1 z190z103z2 z190z224z1 z190z224z2 z190z84z2 z190z301z2 
z284z141z3 z284z20z2 z284z103z2 z284z224z2 z284z84z2 z284z84z3 z284z81z3 z284z301z2 z284z301z3 


z220z300z2 z220z248z2 z220z103z2 
z80z300z1 z80z187z1 z80z96z1 
z39z248z2 z39z103z2 z39z84z2 z39z301z2 
z141z224z1 z141z84z3 z141z301z3 
z106z20z2 z106z224z2 z106z84z2 z106z301z2 
z300z103z2 z300z96z1 
z20z224z2 z20z84z2 z20z301z2 
z248z103z2 
z193z224z1 
z166z224z1 
z187z96z1 


z224z84z2 z224z301z2 
z84z301z2 z84z301z3 



End